unsat
( c102
  c103
  c104
  c105
  c106
  c110
  c116
  c119
  c122
  c125
  c126
  c127
  c128
  c132
  c133
  c141
  c143
  c144
  c145
  c146
  c148
  c152
  c154
  c156
  c158
  c159
  c160
  c164
  c165
  c173
  c175
  c176
  c177
  c178
  c18
  c180
  c184
  c186
  c188
  c190
  c191
  c192
  c198
  c199
  c20
  c200
  c201
  c202
  c205
  c206
  c212
  c215
  c218
  c221
  c222
  c223
  c224
  c230
  c231
  c232
  c233
  c234
  c238
  c244
  c247
  c250
  c253
  c254
  c255
  c256
  c26
  c261
  c262
  c270
  c271
  c272
  c273
  c274
  c276
  c28
  c280
  c282
  c284
  c286
  c287
  c288
  c294
  c295
  c296
  c297
  c298
  c30
  c301
  c302
  c304
  c305
  c307
  c308
  c31
  c310
  c311
  c320
  c328
  c36
  c37
  c45
  c49
  c50
  c51
  c52
  c56
  c58
  c60
  c62
  c63
  c64
  c70
  c71
  c72
  c73
  c74
  c77
  c78
  c83
  c84
  c87
  c90
  c93
  c94
  c95
  c96 )
